20
40.0
0 19 3.16 9.89
1 18 12.5 1.39
2 17 2.65 0.68
3 16 1.31 0.46
4 15 1.27 2.94
5 14 0.0 2.21
6 13 0.38 0.77
7 12 0.0 0.83
8 11 0.09 0.73
9 10 0.0 0.8
10 9 10.0 1.21
11 8 0.0 0.75
12 7 0.0 0.0
13 6 11.67 0.15
14 5 9.2 0.06
15 4 5.0 0.03
16 3 0.0 0.2
17 2 45.0 0.05
18 1 0.0 0.0
